(set-info :smt-lib-version 2.6)
(set-logic QF_UFLRA)
(set-info :source |
MathSat group

|)
(set-info :category "random")
(set-info :status sat)
(declare-fun x0 () Real)
(declare-fun x1 () Real)
(declare-fun x2 () Real)
(declare-fun x3 () Real)
(declare-fun x4 () Real)
(declare-fun x5 () Real)
(declare-fun x6 () Real)
(declare-fun x7 () Real)
(declare-fun x8 () Real)
(declare-fun x9 () Real)
(declare-fun x10 () Real)
(declare-fun x11 () Real)
(declare-fun x12 () Real)
(declare-fun x13 () Real)
(declare-fun x14 () Real)
(declare-fun x15 () Real)
(declare-fun x16 () Real)
(declare-fun x17 () Real)
(declare-fun x18 () Real)
(declare-fun x19 () Real)
(declare-fun x20 () Real)
(declare-fun x21 () Real)
(declare-fun x22 () Real)
(declare-fun x23 () Real)
(declare-fun x24 () Real)
(declare-fun x25 () Real)
(declare-fun x26 () Real)
(declare-fun x27 () Real)
(declare-fun x28 () Real)
(declare-fun x29 () Real)
(declare-fun x30 () Real)
(declare-fun x31 () Real)
(declare-fun x32 () Real)
(declare-fun x33 () Real)
(declare-fun x34 () Real)
(declare-fun x35 () Real)
(declare-fun x36 () Real)
(declare-fun x37 () Real)
(declare-fun x38 () Real)
(declare-fun x39 () Real)
(declare-fun f0_1 (Real) Real)
(declare-fun f0_2 (Real Real) Real)
(declare-fun f0_3 (Real Real Real) Real)
(declare-fun f0_4 (Real Real Real Real) Real)
(declare-fun P0 () Bool)
(declare-fun P1 () Bool)
(declare-fun P2 () Bool)
(declare-fun P3 () Bool)
(declare-fun P4 () Bool)
(declare-fun P5 () Bool)
(declare-fun P6 () Bool)
(declare-fun P7 () Bool)
(declare-fun P8 () Bool)
(declare-fun P9 () Bool)
(declare-fun P10 () Bool)
(declare-fun P11 () Bool)
(declare-fun P12 () Bool)
(declare-fun P13 () Bool)
(declare-fun P14 () Bool)
(declare-fun P15 () Bool)
(declare-fun P16 () Bool)
(declare-fun P17 () Bool)
(declare-fun P18 () Bool)
(declare-fun P19 () Bool)
(declare-fun P20 () Bool)
(declare-fun P21 () Bool)
(declare-fun P22 () Bool)
(declare-fun P23 () Bool)
(declare-fun P24 () Bool)
(declare-fun P25 () Bool)
(declare-fun P26 () Bool)
(declare-fun P27 () Bool)
(declare-fun P28 () Bool)
(declare-fun P29 () Bool)
(declare-fun P30 () Bool)
(declare-fun P31 () Bool)
(declare-fun P32 () Bool)
(declare-fun P33 () Bool)
(declare-fun P34 () Bool)
(declare-fun P35 () Bool)
(declare-fun P36 () Bool)
(declare-fun P37 () Bool)
(declare-fun P38 () Bool)
(declare-fun P39 () Bool)
(assert (let ((?v_32 (* 51 x19)) (?v_23 (<= (- (- (* 56 x9) (* 23 x24)) (* 34 x15)) 11)) (?v_103 (* 2 x4)) (?v_82 (< (- (+ (* 34 x36) (* 38 x25)) (* 29 x3)) 4)) (?v_28 (<= (- (- (* 48 x35) (* 49 x30)) (* 23 x29)) 22)) (?v_58 (< (+ (- (* 41 x1) (* 20 x20)) (* 19 x38)) 44)) (?v_128 (< (+ (- (* 39 x15) (* 15 x15)) (* 45 x7)) 23)) (?v_46 (* 35 x2))) (let ((?v_68 (< (- (+ (* 23 x35) (* 10 x17)) ?v_46) 37)) (?v_59 (distinct (f0_2 x22 x26) (f0_1 x15))) (?v_26 (f0_1 x14)) (?v_78 (f0_1 x16))) (let ((?v_167 (= ?v_26 ?v_78)) (?v_18 (= x22 (f0_2 x22 x15))) (?v_51 (f0_1 x35))) (let ((?v_79 (distinct x30 ?v_51)) (?v_74 (f0_1 x25))) (let ((?v_152 (distinct (f0_2 x10 x24) ?v_74)) (?v_117 (= x24 (f0_2 x10 x27))) (?v_24 (= (f0_2 x30 x37) x21)) (?v_158 (distinct (f0_2 x38 x30) (f0_2 x37 x37))) (?v_66 (distinct x33 (f0_2 x17 x0))) (?v_161 (= (f0_1 x9) (f0_2 x39 x22))) (?v_56 (f0_1 x2))) (let ((?v_20 (distinct x29 ?v_56)) (?v_106 (distinct (f0_2 x39 x38) (f0_2 x3 x26))) (?v_22 (f0_1 x30))) (let ((?v_165 (distinct ?v_22 x36)) (?v_77 (distinct (f0_2 x34 x3) (f0_2 x12 x14))) (?v_75 (f0_1 x32))) (let ((?v_99 (= ?v_74 ?v_75)) (?v_12 (distinct x8 x11)) (?v_55 (f0_1 x3))) (let ((?v_94 (= ?v_55 (f0_2 x14 x2))) (?v_53 (= (f0_2 x18 x0) (f0_1 x17))) (?v_150 (= ?v_78 x9)) (?v_17 (f0_1 x21))) (let ((?v_100 (= ?v_17 x10)) (?v_95 (distinct x24 (f0_2 x13 x0))) (?v_108 (distinct (f0_1 x5) ?v_51)) (?v_31 (= x15 (f0_2 x17 x22))) (?v_8 (= (f0_2 x13 x14) (f0_2 x22 x30))) (?v_107 (distinct (f0_2 x19 x14) (f0_2 x16 x31))) (?v_25 (= (f0_2 x2 x32) (f0_1 x34))) (?v_36 (distinct ?v_75 ?v_17)) (?v_189 (= (f0_2 x34 x29) ?v_22)) (?v_137 (distinct (f0_1 x11) (f0_2 x30 x2))) (?v_1 (f0_1 x19))) (let ((?v_14 (distinct ?v_1 ?v_26)) (?v_13 (distinct x14 x2)) (?v_76 (= x12 (f0_1 x8))) (?v_3 (= ?v_1 (f0_1 x38))) (?v_113 (= ?v_51 ?v_56)) (?v_45 (= (f0_2 x17 x8) (f0_2 x11 x17))) (?v_16 (f0_1 x20))) (let ((?v_83 (= ?v_16 ?v_17)) (?v_5 (distinct x6 x0)) (?v_105 (= ?v_55 x21)) (?v_10 (= (f0_2 x9 x5) ?v_16)) (?v_67 (distinct x3 (f0_2 x5 x22))) (?v_7 (not P11)) (?v_49 (not ?v_95)) (?v_73 (not P28)) (?v_145 (not P29)) (?v_178 (not P9))) (let ((?v_2 (not ?v_5)) (?v_180 (not ?v_10)) (?v_153 (not P20)) (?v_182 (not P35)) (?v_57 (not ?v_8)) (?v_87 (not P16)) (?v_119 (not ?v_100)) (?v_42 (not ?v_13)) (?v_80 (not ?v_67)) (?v_15 (not P15)) (?v_29 (not P7)) (?v_146 (not ?v_12)) (?v_130 (not ?v_14)) (?v_47 (not ?v_165)) (?v_19 (not P38)) (?v_201 (not P5)) (?v_84 (not ?v_83)) (?v_115 (not ?v_77)) (?v_123 (not ?v_189)) (?v_93 (not P31)) (?v_81 (not ?v_24)) (?v_127 (not ?v_25)) (?v_131 (not ?v_167)) (?v_102 (not P13)) (?v_166 (not P10)) (?v_122 (not ?v_152)) (?v_64 (not P17)) (?v_101 (not ?v_3)) (?v_91 (not P39)) (?v_116 (not P37)) (?v_65 (not ?v_36)) (?v_72 (not ?v_53)) (?v_54 (not P34)) (?v_90 (not ?v_45)) (?v_162 (not ?v_79)) (?v_157 (not ?v_94)) (?v_176 (not ?v_113)) (?v_98 (not ?v_58)) (?v_141 (not ?v_23)) (?v_112 (not ?v_59)) (?v_144 (not P24)) (?v_168 (not ?v_68)) (?v_136 (not ?v_20)) (?v_210 (not ?v_161)) (?v_160 (not P27)) (?v_135 (not ?v_18)) (?v_147 (not ?v_76)) (?v_86 (not P8)) (?v_92 (not ?v_82)) (?v_142 (not P26)) (?v_192 (not ?v_31)) (?v_97 (not P19)) (?v_133 (not P18)) (?v_207 (not ?v_117)) (?v_121 (not ?v_137)) (?v_125 (not P22)) (?v_132 (not ?v_28)) (?v_114 (not P2)) (?v_140 (not P23)) (?v_169 (not ?v_105)) (?v_143 (not ?v_106)) (?v_190 (not ?v_107)) (?v_154 (not P3)) (?v_205 (not ?v_99)) (?v_175 (not ?v_128)) (?v_171 (not P21)) (?v_164 (not P36)) (?v_159 (not P30)) (?v_177 (not ?v_150)) (?v_183 (not P33)) (?v_208 (not ?v_158)) (?v_198 (not P12)) (?v_191 (not P32)) (?v_199 (not P1)) (?v_184 (not P6)) (?v_187 (not ?v_108)) (?v_193 (not P25)) (?v_197 (not P4)) (?v_203 (not P0)) (?v_209 (not P14)) (?v_200 (not ?v_66)) (?v_62 (< (+ (* 41 x27) (* 6 x31) (* 10 x38)) 15)) (?v_111 (<= (+ ?v_103 (* 23 x14) (* 39 x39)) 6)) (?v_170 (<= (+ ?v_32 (* 15 x36) ?v_46) 58)) (?v_85 (<= (+ (* 4 x39) (* 57 x18) (* 46 x35)) 34))) (let ((?v_124 (not ?v_85)) (?v_194 (not ?v_62)) (?v_174 (not ?v_111)) (?v_179 (not ?v_170)) (?v_35 (<= (- (+ (* (- 33) x12) (* 54 x13)) (* 33 x22)) 26)) (?v_0 (< (+ (* (- 15) x34) (* 43 x25) (* 48 x32)) (- 2))) (?v_149 (<= (- (- (* (- 41) x36) (* 8 x33)) (* 35 x23)) (- 54)))) (let ((?v_37 (not ?v_149)) (?v_21 (= (+ (* (- 5) x19) (* 3 x15) (* 25 x22)) 57))) (let ((?v_6 (not ?v_21)) (?v_4 (< (+ (- (* (- 13) x37) (* 40 x32)) (* 16 x37)) (- 8))) (?v_50 (<= (- (+ (* 50 x35) (* 55 x25)) (* 42 x22)) (- 39))) (?v_156 (<= (- (- (* (- 48) x3) (* 39 x11)) 0) (- 13)))) (let ((?v_173 (not ?v_156)) (?v_30 (<= (+ (- (* (- 22) x16) (* 5 x11)) (* 39 x32)) (- 12)))) (let ((?v_43 (not ?v_30)) (?v_48 (< (+ (- (* (- 18) x0) (* 3 x34)) (* 57 x28)) (- 24))) (?v_38 (= (- (- (* (- 15) x27) ?v_32) (* 45 x27)) (- 10))) (?v_11 (<= (+ (* (- 54) x12) (* 33 x38) (* 33 x12)) 28))) (let ((?v_151 (not ?v_11)) (?v_139 (<= (- (- (* (- 36) x26) (* 40 x2)) (* 20 x27)) 57)) (?v_9 (< (+ (- (* 20 x13) (* 42 x20)) (* 21 x39)) (- 2)))) (let ((?v_33 (not ?v_9)) (?v_41 (< (- (+ (* (- 20) x29) (* 51 x12)) (* 35 x10)) 55)) (?v_27 (<= (- (+ (* (- 32) x2) (* 48 x33)) (* 20 x2)) 28)) (?v_44 (= (- (+ (* (- 52) x23) (* 22 x14)) 0) 38)) (?v_134 (< (- (+ (* 57 x6) (* 7 x13)) 0) (- 29))) (?v_109 (< (- (- (* (- 45) x13) (* 56 x17)) (* 52 x14)) 17))) (let ((?v_71 (not ?v_109)) (?v_148 (< (- (- (* (- 54) x36) (* 4 x2)) (* 6 x26)) (- 35)))) (let ((?v_34 (not ?v_148)) (?v_155 (not ?v_0)) (?v_52 (distinct (+ (- (* 48 x22) (* 28 x22)) (* 6 x3)) (- 59))) (?v_63 (< (+ (* 14 x30) (* 33 x15) (* 15 x9)) (- 56))) (?v_61 (< (+ (* (- 34) x14) (* 6 x10) (* 30 x4)) 4))) (let ((?v_110 (not ?v_61)) (?v_60 (<= (+ (* 34 x7) (* 30 x28) (* 37 x24)) (- 19)))) (let ((?v_70 (not ?v_60)) (?v_40 (distinct (+ (- (* (- 23) x19) (* 57 x33)) (* 2 x16)) (- 13))) (?v_39 (not ?v_38)) (?v_88 (< (+ (* 53 x29) (* 27 x10) (* 56 x13)) (- 21)))) (let ((?v_188 (not ?v_88)) (?v_69 (not ?v_41))) (let ((?v_204 (or ?v_69 ?v_42)) (?v_104 (not ?v_44)) (?v_89 (not ?v_50)) (?v_195 (not ?v_35)) (?v_138 (< (- (* 42 x36) (* 18 x31)) (- 11)))) (let ((?v_185 (not ?v_138)) (?v_96 (< (- (+ (* (- 18) x17) (* 20 x18)) (* 44 x37)) (- 58))) (?v_211 (not ?v_4)) (?v_118 (<= (+ (* (- 1) x29) (* 52 x37) (* 11 x18)) 50)) (?v_120 (< (+ (* (- 21) x31) ?v_103 (* 14 x18)) 50)) (?v_163 (not ?v_40)) (?v_126 (not ?v_52)) (?v_129 (< (- (- (* (- 55) x28) (* 45 x33)) (* 26 x33)) (- 51)))) (let ((?v_181 (not ?v_118)) (?v_172 (not ?v_120)) (?v_202 (not ?v_134)) (?v_186 (not ?v_139)) (?v_196 (not ?v_129)) (?v_212 (not ?v_96)) (?v_206 (not ?v_27))) (and (and (and (and (and (and (and (and (and (and (and (and (and (and (and (and (and (and (and (and (and (and (and (and (and (and (and (and (and (and (and (and (and (and (and (and (and (and (and (and (and (and (and (and (and (and (and (and (and (and (and (and (and (and (and (and (and (and (and (and (and (and (and (and (and (and (and (and (and (and (and (and (and (and (and (and (and (and (and (and (and (and (and (and (and (and (and (and (and (and (and (and (and (and (and (and (and (and (and (and (and (and (and (and (and (and (and (and (and (and (and (and (and (and (and (and (and (and (and (and (and (and (and (and (and (and (and (and (and (and (and (and (and (and (and (and (and (and (and (and (and (and (and (and (and (and (and (and (and (and (and (and (and (and (and (and (and (and (and (and (and (and (and (and (and (and (and (and (and (and (and (and (and (and (and (and (and (and (and (and (and (and (and (and (and (and (and (and (and (and (and (and (and (and (and (and (and (and (and (and (and (and (and (and (and (and (and (and (and (and (and (and (and (and (and (and (and (and (and (and (and (and (and (and (and (and (and (and (and (and (and (and (and (and (and (and (and (and (and (and (and (and (and (and (and (and (and (and (and (and (and (and (and (and (and (and (and (and (and (and (and (and (and (and (and (and (and (and (and (and (and (and (and (and (and (and (and (and (and (and (and (and (and (and (and (and (and (and (and (and (and (and (and (and (and (and (and (and (and (and (and (and (and (and (and (and (and (and (and (and (and (and (and (and (and (and (and (and (and (and (and (and (and (and (and (and (and (and (and (and (and (and (and (and (and (and (and (and (and (and (and (and (and (and (and (and (and (and (and (and (and (and (and (and (and (and (and (and (and (and (and (and (and (and (and (and (and (and (and (and (and (and (and (and (and (and (and (and (and (and (and (and (and (and (and (and (and (and (and (and (and (and (and (and (and (and (and (and (and (and (and (and (and (and (and (and (and (and (and (and (and (and (and (and (and (and (and (and (and (and (and (and (and (and (and (and (and (and (and (and (and (and (and (and (and (and (and (and (and (and (and (and (and (and (and (and (and (and (and (and (and (and (and (and (and (and (and (and (and (and (and (and (and (and (and (and (and (and (and (and (and (and (and (and (and (and (and (and (and (or (or ?v_35 ?v_3) P15) (or (or ?v_7 ?v_31) ?v_49)) (or (or ?v_0 ?v_73) P30)) (or (or ?v_0 ?v_145) ?v_37)) (or (or ?v_62 ?v_178) ?v_25)) (or (or ?v_59 ?v_6) P30)) (or (or ?v_4 ?v_14) ?v_50)) (or (or ?v_173 ?v_2) P7)) (or (or ?v_2 ?v_43) P27)) (or (or P10 P2) P31)) (or (or ?v_3 ?v_48) ?v_4)) (or (or P12 ?v_8) ?v_180)) (or (or ?v_38 P8) ?v_111)) (or (or ?v_5 ?v_28) ?v_151)) (or (or ?v_12 ?v_6) ?v_153)) (or (or ?v_7 P11) ?v_8)) (or (or ?v_139 ?v_182) ?v_57)) (or (or ?v_2 ?v_9) P4)) (or (or ?v_0 ?v_33) ?v_10)) (or (or P28 ?v_41) ?v_18)) (or (or ?v_11 ?v_87) P21)) (or (or P18 P35) ?v_119)) (or (or ?v_20 ?v_13) ?v_12)) (or (or ?v_27 ?v_42) P24)) (or (or ?v_13 ?v_80) ?v_15)) (or (or P26 ?v_29) ?v_44)) (or (or ?v_105 ?v_146) ?v_130)) (or (or ?v_47 ?v_134) ?v_15)) (or (or ?v_19 ?v_201) ?v_24)) (or (or ?v_84 ?v_18) ?v_19)) (or (or P1 ?v_20) ?v_76)) (or (or ?v_18 P10) ?v_21)) (or (or ?v_36 ?v_58) ?v_3)) (or (or ?v_8 ?v_45) ?v_115)) (or (or ?v_71 ?v_34) ?v_23)) (or (or P10 P6) ?v_123)) (or (or ?v_23 ?v_19) ?v_107)) (or (or P0 ?v_93) ?v_0)) (or (or P26 ?v_155) ?v_52)) (or (or ?v_81 ?v_127) ?v_131)) (or (or ?v_63 ?v_102) ?v_7)) (or (or ?v_110 ?v_166) ?v_27)) (or (or ?v_70 P25) P37)) (or (or ?v_28 ?v_122) ?v_29)) (or (or ?v_64 ?v_101) ?v_108)) (or (or ?v_13 P3) ?v_91)) (or (or ?v_30 ?v_40) ?v_31)) (or (or ?v_116 ?v_170) ?v_33)) (or (or ?v_33 ?v_34) ?v_35)) (or (or ?v_65 ?v_37) ?v_39)) (or (or ?v_188 ?v_66) ?v_11)) (or (or ?v_39 ?v_10) P1)) (or (or ?v_40 ?v_85) P6)) (or ?v_204 ?v_72)) (or (or ?v_43 ?v_104) P19)) (or (or ?v_54 ?v_13) ?v_90)) (or (or ?v_68 ?v_13) P21)) (or (or ?v_3 ?v_47) ?v_48)) (or (or ?v_49 ?v_89) ?v_162)) (or (or ?v_52 ?v_53) ?v_54)) (or (or ?v_157 ?v_176) P13)) (or (or ?v_50 P3) ?v_18)) (or (or P20 ?v_82) ?v_57)) (or (or P16 ?v_12) ?v_98)) (or (or ?v_141 P28) P9)) (or (or ?v_112 ?v_60) ?v_29)) (or (or ?v_19 ?v_61) ?v_62)) (or (or ?v_36 ?v_63) ?v_64)) (or (or ?v_65 ?v_66) ?v_67)) (or (or ?v_0 ?v_40) ?v_144)) (or (or ?v_168 ?v_69) ?v_70)) (or (or P27 ?v_136) ?v_71)) (or (or ?v_210 ?v_3) ?v_160)) (or (or ?v_6 ?v_6) ?v_60)) (or (or ?v_195 ?v_64) ?v_72)) (or (or ?v_135 ?v_73) ?v_99)) (or (or ?v_147 ?v_185) P33)) (or (or P6 ?v_77) ?v_25)) (or (or ?v_86 P39) ?v_150)) (or (or ?v_28 P34) ?v_66)) (or (or ?v_79 ?v_15) ?v_68)) (or (or P14 ?v_80) ?v_81)) (or (or ?v_92 ?v_96) ?v_83)) (or (or P12 P11) ?v_84)) (or (or ?v_23 ?v_52) ?v_142)) (or (or P4 P27) ?v_124)) (or (or ?v_49 ?v_192) ?v_44)) (or (or P6 ?v_97) P10)) (or (or ?v_133 ?v_86) ?v_87)) (or (or ?v_88 ?v_207) ?v_89)) (or (or P38 ?v_90) P7)) (or (or ?v_91 ?v_121) ?v_125)) (or (or ?v_89 ?v_92) ?v_25)) (or (or ?v_20 P16) ?v_132)) (or (or ?v_93 ?v_94) P8)) (or (or ?v_95 P15) ?v_96)) (or (or ?v_87 ?v_128) ?v_97)) (or (or ?v_211 ?v_98) ?v_114)) (or (or ?v_99 ?v_100) ?v_140)) (or (or ?v_87 P13) ?v_86)) (or (or ?v_54 ?v_106) ?v_14)) (or (or ?v_101 ?v_118) ?v_69)) (or (or ?v_50 ?v_102) ?v_120)) (or (or ?v_104 ?v_31) P6)) (or (or ?v_169 ?v_143) ?v_190)) (or (or ?v_108 ?v_109) ?v_87)) (or (or ?v_67 ?v_110) P38)) (or (or ?v_111 ?v_111) ?v_154)) (or (or ?v_163 ?v_112) ?v_113)) (or (or ?v_114 ?v_41) ?v_65)) (or (or ?v_115 ?v_116) ?v_50)) (or (or ?v_20 ?v_117) ?v_47)) (or (or ?v_50 ?v_70) ?v_111)) (or (or ?v_126 P19) ?v_129)) (or (or ?v_181 ?v_85) ?v_119)) (or (or ?v_172 ?v_205) ?v_18)) (or (or ?v_20 ?v_121) ?v_25)) (or (or ?v_122 ?v_123) P6)) (or (or ?v_21 ?v_112) P3)) (or (or ?v_93 ?v_40) ?v_124)) (or (or ?v_19 ?v_8) ?v_125)) (or (or ?v_65 ?v_20) ?v_126)) (or (or ?v_6 ?v_115) ?v_4)) (or (or ?v_50 ?v_76) P7)) (or (or ?v_80 ?v_5) ?v_127)) (or (or ?v_110 ?v_68) ?v_81)) (or (or P24 ?v_175) P19)) (or (or ?v_49 ?v_129) ?v_43)) (or (or ?v_19 ?v_130) ?v_69)) (or (or ?v_92 ?v_131) ?v_88)) (or (or ?v_107 ?v_84) ?v_47)) (or (or P7 ?v_102) ?v_34)) (or (or ?v_132 P36) ?v_66)) (or (or ?v_194 ?v_133) ?v_202)) (or (or ?v_135 ?v_14) ?v_136)) (or (or P33 ?v_158) ?v_100)) (or (or ?v_24 ?v_137) ?v_116)) (or (or P26 ?v_6) ?v_29)) (or (or ?v_138 ?v_131) ?v_8)) (or (or ?v_139 ?v_57) ?v_106)) (or (or ?v_42 P10) ?v_44)) (or (or ?v_34 ?v_86) ?v_28)) (or (or ?v_111 P32) ?v_140)) (or (or ?v_171 ?v_164) ?v_11)) (or (or ?v_141 ?v_15) ?v_142)) (or (or ?v_136 ?v_143) ?v_114)) (or (or ?v_116 ?v_159) ?v_5)) (or (or ?v_133 ?v_90) ?v_68)) (or (or ?v_28 ?v_70) ?v_144)) (or (or ?v_93 ?v_5) ?v_28)) (or (or ?v_100 ?v_145) ?v_87)) (or (or ?v_143 ?v_90) P38)) (or (or ?v_112 ?v_146) ?v_147)) (or (or ?v_148 ?v_14) ?v_149)) (or (or ?v_93 P26) ?v_70)) (or (or ?v_15 ?v_177) ?v_151)) (or (or ?v_152 ?v_153) ?v_123)) (or (or ?v_154 ?v_183) ?v_14)) (or (or ?v_174 ?v_155) P10)) (or (or ?v_156 ?v_86) ?v_120)) (or (or ?v_131 ?v_21) ?v_0)) (or (or ?v_4 P25) ?v_118)) (or (or ?v_153 ?v_120) ?v_157)) (or (or ?v_89 ?v_73) ?v_156)) (or (or ?v_156 ?v_154) ?v_137)) (or (or ?v_208 ?v_80) ?v_159)) (or (or ?v_155 ?v_160) ?v_108)) (or (or P9 P24) P20)) (or (or ?v_2 ?v_161) ?v_136)) (or (or ?v_119 ?v_21) ?v_4)) (or (or ?v_53 ?v_109) ?v_38)) (or (or ?v_198 P10) P26)) (or (or ?v_162 ?v_139) ?v_10)) (or (or ?v_25 ?v_52) ?v_61)) (or (or ?v_163 ?v_158) ?v_100)) (or (or ?v_151 P19) ?v_84)) (or (or ?v_164 ?v_165) ?v_12)) (or (or P7 ?v_73) ?v_67)) (or (or P29 ?v_166) ?v_186)) (or (or ?v_148 ?v_167) ?v_153)) (or (or P13 P34) ?v_168)) (or (or ?v_9 ?v_96) ?v_99)) (or (or ?v_160 ?v_169) ?v_2)) (or (or ?v_115 P4) ?v_36)) (or (or ?v_4 ?v_96) ?v_179)) (or (or ?v_148 ?v_79) ?v_196)) (or (or ?v_123 ?v_28) ?v_171)) (or (or P19 ?v_50) P36)) (or (or P36 P27) ?v_23)) (or (or ?v_24 ?v_47) ?v_130)) (or (or ?v_172 ?v_134) P16)) (or (or ?v_63 ?v_94) ?v_212)) (or (or ?v_153 P7) P33)) (or (or ?v_45 ?v_83) ?v_47)) (or (or ?v_117 P6) ?v_45)) (or (or ?v_63 ?v_54) ?v_3)) (or (or ?v_173 ?v_141) ?v_38)) (or (or ?v_83 ?v_89) ?v_167)) (or (or ?v_62 ?v_152) ?v_39)) (or (or ?v_107 ?v_163) P31)) (or (or ?v_27 ?v_53) ?v_62)) (or (or ?v_136 ?v_174) ?v_191)) (or (or ?v_136 ?v_119) ?v_147)) (or (or ?v_133 ?v_133) ?v_3)) (or (or P37 ?v_168) ?v_28)) (or (or ?v_6 ?v_170) ?v_127)) (or (or ?v_62 ?v_159) ?v_175)) (or (or ?v_128 ?v_73) ?v_65)) (or (or ?v_176 ?v_123) ?v_109)) (or (or ?v_177 ?v_154) ?v_106)) (or (or ?v_87 ?v_168) ?v_159)) (or (or ?v_120 ?v_99) ?v_6)) (or (or ?v_139 ?v_31) ?v_177)) (or (or ?v_94 P13) ?v_5)) (or (or ?v_71 ?v_49) ?v_70)) (or (or ?v_64 ?v_168) ?v_114)) (or (or ?v_151 ?v_165) ?v_176)) (or (or ?v_199 ?v_162) ?v_63)) (or (or ?v_44 ?v_8) ?v_18)) (or (or ?v_142 ?v_178) ?v_179)) (or (or ?v_180 P25) ?v_43)) (or (or ?v_45 ?v_44) ?v_107)) (or (or P23 ?v_128) P36)) (or (or ?v_181 ?v_162) ?v_50)) (or (or ?v_53 ?v_158) P12)) (or (or P34 ?v_151) ?v_68)) (or (or ?v_172 ?v_163) ?v_115)) (or (or ?v_62 P31) P9)) (or (or ?v_119 P34) ?v_92)) (or (or P22 ?v_107) P14)) (or (or ?v_88 P3) ?v_158)) (or (or P17 ?v_71) ?v_151)) (or (or ?v_182 ?v_77) ?v_155)) (or (or ?v_158 ?v_23) ?v_47)) (or (or ?v_136 ?v_184) ?v_82)) (or (or ?v_8 ?v_0) ?v_124)) (or (or ?v_84 ?v_41) P7)) (or (or ?v_108 ?v_35) ?v_86)) (or (or ?v_71 P19) ?v_105)) (or (or P21 ?v_82) ?v_180)) (or (or ?v_70 ?v_68) ?v_148)) (or (or P31 P30) ?v_183)) (or (or ?v_187 ?v_86) ?v_117)) (or (or ?v_184 ?v_29) ?v_94)) (or (or ?v_118 ?v_137) ?v_167)) (or (or ?v_164 P15) ?v_120)) (or (or P9 P34) P10)) (or (or ?v_104 ?v_4) P12)) (or (or ?v_162 ?v_14) ?v_173)) (or (or ?v_13 ?v_40) ?v_96)) (or (or ?v_65 ?v_97) ?v_30)) (or (or ?v_185 ?v_186) P22)) (or (or ?v_147 ?v_27) ?v_131)) (or (or ?v_20 ?v_29) ?v_164)) (or (or ?v_45 P14) ?v_0)) (or (or P39 P25) ?v_79)) (or (or ?v_102 ?v_175) ?v_148)) (or (or ?v_176 ?v_117) ?v_158)) (or (or P24 ?v_154) ?v_89)) (or (or ?v_100 ?v_29) ?v_83)) (or (or ?v_108 ?v_77) ?v_4)) (or (or ?v_57 ?v_206) P15)) (or (or ?v_138 P9) P10)) (or (or ?v_157 ?v_72) ?v_187)) (or (or P23 ?v_23) ?v_188)) (or (or ?v_105 ?v_160) ?v_61)) (or (or ?v_76 P24) ?v_54)) (or (or ?v_68 P37) ?v_182)) (or (or ?v_105 ?v_125) ?v_23)) (or (or ?v_6 ?v_134) ?v_8)) (or (or (not ?v_63) ?v_193) ?v_70)) (or (or ?v_28 ?v_169) ?v_197)) (or (or ?v_29 ?v_63) ?v_64)) (or (or ?v_134 ?v_126) ?v_72)) (or (or ?v_10 ?v_49) P12)) (or (or ?v_127 ?v_124) ?v_98)) (or (or ?v_113 ?v_156) ?v_145)) (or (or ?v_24 ?v_72) ?v_68)) (or (or ?v_169 ?v_79) ?v_39)) (or (or ?v_203 ?v_90) ?v_173)) (or (or ?v_132 ?v_53) ?v_126)) (or (or ?v_73 ?v_146) ?v_72)) (or (or ?v_76 P25) ?v_148)) (or (or ?v_145 ?v_189) ?v_31)) (or (or ?v_175 ?v_158) ?v_87)) (or (or ?v_180 ?v_70) ?v_190)) (or (or ?v_59 ?v_47) ?v_18)) (or (or ?v_34 ?v_151) ?v_111)) (or (or ?v_39 ?v_88) ?v_159)) (or (or ?v_178 P39) ?v_118)) (or (or ?v_31 ?v_48) ?v_147)) (or (or ?v_12 ?v_101) P18)) (or (or ?v_151 ?v_148) P22)) (or (or P38 ?v_50) ?v_125)) (or (or P32 ?v_175) ?v_130)) (or (or ?v_50 P14) ?v_102)) (or (or ?v_95 ?v_147) ?v_41)) (or (or P1 ?v_90) P7)) (or (or ?v_149 ?v_20) ?v_60)) (or (or ?v_97 ?v_172) ?v_177)) (or (or ?v_57 ?v_37) ?v_157)) (or (or ?v_141 ?v_13) ?v_10)) (or (or ?v_28 P20) P29)) (or (or P22 P29) ?v_76)) (or (or P10 P23) P13)) (or (or ?v_33 ?v_112) ?v_191)) (or (or ?v_43 ?v_129) ?v_134)) (or (or P22 ?v_47) ?v_167)) (or (or P27 ?v_61) ?v_192)) (or (or ?v_147 P2) ?v_150)) (or (or ?v_180 ?v_143) ?v_193)) (or (or ?v_79 ?v_170) ?v_142)) (or (or ?v_70 ?v_81) ?v_184)) (or (or ?v_158 P13) P12)) (or (or ?v_209 ?v_3) ?v_5)) (or (or ?v_7 ?v_20) ?v_143)) (or (or ?v_114 ?v_61) ?v_158)) (or (or ?v_135 ?v_25) ?v_149)) (or (or ?v_71 P22) ?v_153)) (or (or ?v_194 ?v_174) ?v_195)) (or (or ?v_48 ?v_95) ?v_184)) (or (or ?v_196 P39) ?v_44)) (or (or ?v_164 ?v_42) ?v_34)) (or (or P33 ?v_139) P19)) (or (or ?v_110 ?v_121) ?v_76)) (or (or ?v_118 P26) ?v_148)) (or (or P30 ?v_140) ?v_189)) (or (or P36 ?v_200) ?v_172)) (or (or ?v_142 ?v_7) ?v_160)) (or (or ?v_83 ?v_102) ?v_140)) (or (or ?v_158 ?v_59) ?v_106)) (or (or ?v_130 ?v_52) ?v_84)) (or (or ?v_12 P33) ?v_184)) (or (or ?v_120 ?v_150) ?v_197)) (or (or ?v_149 P8) ?v_105)) (or (or P34 ?v_198) ?v_125)) (or (or ?v_180 ?v_107) ?v_142)) (or (or P15 ?v_89) ?v_199)) (or (or ?v_41 ?v_142) P8)) (or (or P38 P4) ?v_124)) (or (or ?v_167 ?v_44) ?v_133)) (or (or ?v_131 P37) ?v_125)) (or (or ?v_158 P22) ?v_47)) (or (or P31 ?v_44) ?v_67)) (or (or ?v_40 ?v_110) ?v_97)) (or (or ?v_110 ?v_200) ?v_201)) (or (or ?v_171 ?v_109) ?v_110)) (or (or ?v_165 ?v_162) ?v_201)) (or (or ?v_44 ?v_123) ?v_31)) (or (or ?v_66 P23) ?v_9)) (or (or ?v_110 ?v_2) P15)) (or (or P21 ?v_152) ?v_106)) (or (or ?v_100 ?v_187) ?v_69)) (or (or ?v_101 ?v_181) ?v_90)) (or (or ?v_98 ?v_202) ?v_163)) (or (or P14 ?v_124) ?v_49)) (or (or ?v_45 ?v_71) ?v_24)) (or (or ?v_97 P9) ?v_135)) (or (or ?v_171 ?v_41) ?v_182)) (or (or ?v_7 ?v_154) ?v_25)) (or (or ?v_179 ?v_40) P14)) (or (or ?v_44 ?v_105) ?v_64)) (or (or ?v_153 ?v_64) ?v_203)) (or ?v_204 ?v_135)) (or (or P16 ?v_4) ?v_106)) (or (or P10 ?v_28) ?v_107)) (or (or ?v_87 ?v_110) ?v_141)) (or (or ?v_184 P38) ?v_27)) (or (or ?v_54 P21) ?v_27)) (or (or ?v_13 ?v_123) ?v_108)) (or (or ?v_92 ?v_44) ?v_39)) (or (or ?v_182 ?v_198) ?v_110)) (or (or ?v_114 ?v_154) ?v_161)) (or (or P25 ?v_43) ?v_79)) (or (or ?v_5 P1) ?v_21)) (or (or ?v_186 ?v_62) ?v_83)) (or (or ?v_84 P11) ?v_172)) (or (or ?v_121 ?v_0) ?v_107)) (or (or ?v_40 ?v_89) ?v_36)) (or (or ?v_181 ?v_170) ?v_102)) (or (or ?v_195 ?v_152) P25)) (or (or ?v_28 ?v_115) ?v_73)) (or (or ?v_166 ?v_35) ?v_43)) (or (or ?v_205 ?v_4) ?v_79)) (or (or P33 ?v_65) ?v_120)) (or (or ?v_14 ?v_180) ?v_146)) (or (or ?v_165 ?v_23) ?v_148)) (or (or ?v_69 P37) ?v_95)) (or (or ?v_154 P28) ?v_146)) (or (or ?v_142 P18) ?v_121)) (or (or ?v_173 ?v_140) ?v_116)) (or (or ?v_163 ?v_21) ?v_108)) (or (or ?v_37 ?v_154) ?v_189)) (or (or ?v_88 P17) ?v_154)) (or (or P32 ?v_178) P21)) (or (or ?v_177 ?v_206) ?v_96)) (or (or ?v_10 ?v_193) ?v_25)) (or (or P30 ?v_125) ?v_182)) (or (or ?v_12 ?v_76) ?v_140)) (or (or P26 P19) ?v_138)) (or (or ?v_23 ?v_199) ?v_0)) (or (or ?v_76 ?v_207) ?v_184)) (or (or ?v_207 P11) ?v_79)) (or (or ?v_45 P16) P32)) (or (or ?v_176 ?v_145) ?v_39)) (or (or ?v_168 P16) P29)) (or (or ?v_156 ?v_151) ?v_18)) (or (or ?v_176 ?v_112) ?v_109)) (or (or ?v_208 P31) ?v_124)) (or (or ?v_171 ?v_201) P7)) (or (or ?v_135 ?v_179) ?v_43)) (or (or ?v_209 ?v_68) ?v_5)) (or (or ?v_30 ?v_14) ?v_90)) (or (or ?v_33 P6) ?v_185)) (or (or ?v_42 ?v_27) ?v_170)) (or (or ?v_156 ?v_115) ?v_126)) (or (or ?v_139 ?v_39) ?v_64)) (or (or ?v_119 ?v_158) ?v_138)) (or (or ?v_195 ?v_210) ?v_10)) (or (or P18 ?v_76) ?v_129)) (or (or ?v_59 ?v_62) ?v_170)) (or (or ?v_59 ?v_117) ?v_36)) (or (or ?v_184 ?v_127) ?v_209)) (or (or ?v_125 P19) ?v_67)) (or (or P2 ?v_205) ?v_211)) (or (or ?v_10 ?v_106) ?v_141)) (or (or ?v_202 ?v_212) ?v_6)) (or (or ?v_169 ?v_171) ?v_82)) (or (or ?v_0 ?v_70) ?v_21)) (or (or ?v_184 ?v_108) ?v_180)) (or (or ?v_172 P35) ?v_198)) (or (or ?v_172 ?v_120) ?v_134)) (or (or ?v_173 ?v_41) ?v_212)) (or (or ?v_134 ?v_43) ?v_39)) (or (or ?v_49 ?v_80) ?v_126)) (or (or P27 ?v_185) ?v_90)) (or (or ?v_38 ?v_18) ?v_160)) (or (or P8 P8) ?v_44)) (or (or ?v_187 P8) ?v_184)) (or (or ?v_206 ?v_212) ?v_118)) (or (or ?v_112 ?v_123) P21)) (or (or ?v_188 ?v_6) ?v_168)) (or (or ?v_131 ?v_120) ?v_119)) (or (or ?v_105 ?v_169) ?v_159)) (or (or P30 P15) ?v_193)) (or (or ?v_138 ?v_151) ?v_49)) (or (or ?v_59 ?v_94) ?v_212)) (or (or ?v_170 P32) ?v_43)) (or (or ?v_48 P17) ?v_18)) (or (or P0 ?v_12) ?v_69)) (or (or ?v_171 ?v_207) ?v_39)) (or (or P35 ?v_201) ?v_203)) (or (or ?v_210 ?v_188) ?v_37)) (or (or P18 ?v_69) ?v_190)) (or (or ?v_40 ?v_43) ?v_82)) (or (or P6 ?v_45) ?v_173)) (or (or ?v_145 P7) ?v_80)) (or (or ?v_86 ?v_86) ?v_210)) (or (or P2 P9) ?v_127)) (or (or ?v_6 ?v_44) P12)) (or (or P26 ?v_140) ?v_38)) (or (or P15 ?v_83) ?v_166)) (or (or ?v_52 ?v_65) P31)) (or (or ?v_120 P22) ?v_87)) (or (or ?v_156 P38) ?v_69)) (or (or ?v_133 ?v_104) P31)) (or (or ?v_138 P1) ?v_49)) (or (or ?v_19 ?v_102) ?v_139)) (or (or ?v_42 (not ?v_48)) ?v_96)) (or (or ?v_113 ?v_109) P18)) (or (or ?v_181 P5) P18)) (or (or ?v_157 ?v_179) ?v_24)) (or (or ?v_14 ?v_49) ?v_38)) (or (or ?v_71 ?v_23) ?v_150)) (or (or P7 ?v_105) ?v_38)) (or (or ?v_124 ?v_122) P1)) (or (or ?v_120 ?v_37) ?v_60)) (or (or ?v_99 ?v_104) ?v_163)) (or (or ?v_96 ?v_121) ?v_59)) (or (or ?v_186 P34) ?v_135)))))))))))))))))))))))))))))))
(check-sat)
(exit)
